50 1768
840 532 84 532 665 336 399 1064 588 1197 672 532 266 1064 336 840 1330 1064 665 532 504 1064 665 84 756 1197 1064 168 420 168 420 798 665 588 252 532 420 532 588 665 504 840 252 133 931 504 665 931 84 399 
980 472 98 472 590 392 354 944 686 1062 784 472 236 944 392 980 1180 944 590 472 588 944 590 98 882 1062 944 196 490 196 490 708 590 686 294 472 490 472 686 590 588 980 294 118 826 588 590 826 98 354 
